\* Distribution_Optimizer *\
Minimize
Lowest_transportation_cost: 1277.61109244 Route_S_Atlanta_D_Albuquerque
 + 577.035318884 Route_S_Atlanta_D_Baltimore
 + 937.703115647 Route_S_Atlanta_D_Boston
 + 226.265770418 Route_S_Atlanta_D_Charlotte
 + 436.254953509 Route_S_Atlanta_D_Columbus
 + 702.041992117 Route_S_Atlanta_D_Houston
 + 427.472191585 Route_S_Atlanta_D_Indianapolis
 + 676.565584736 Route_S_Atlanta_D_Kansas_City
 + 1960.51448859 Route_S_Atlanta_D_Los_Angeles
 + 320.552315017 Route_S_Atlanta_D_Louisville
 + 336.83332533 Route_S_Atlanta_D_Memphis
 + 606.853170899 Route_S_Atlanta_D_Miami
 + 909.342280245 Route_S_Atlanta_D_Minneapolis
 + 746.674925504 Route_S_Atlanta_D_New_York
 + 757.030438478 Route_S_Atlanta_D_Oklahoma_City
 + 470.144594044 Route_S_Atlanta_D_Richmond
 + 1594.41496258 Route_S_Atlanta_D_Salt_Lake_City
 + 1912.9217007 Route_S_Atlanta_D_San_Diego
 + 2173.54262977 Route_S_Atlanta_D_San_Francisco
 + 467.549594997 Route_S_Atlanta_D_St._Louis
 + 1131.97448644 Route_S_Chicago_D_Albuquerque
 + 605.520818076 Route_S_Chicago_D_Baltimore
 + 851.562036084 Route_S_Chicago_D_Boston
 + 587.86799939 Route_S_Chicago_D_Charlotte
 + 275.699831527 Route_S_Chicago_D_Columbus
 + 943.47512645 Route_S_Chicago_D_Houston
 + 164.840884026 Route_S_Chicago_D_Indianapolis
 + 412.578263184 Route_S_Chicago_D_Kansas_City
 + 1761.04476833 Route_S_Chicago_D_Los_Angeles
 + 269.364178581 Route_S_Chicago_D_Louisville
 + 483.177600932 Route_S_Chicago_D_Memphis
 + 1194.97532169 Route_S_Chicago_D_Miami
 + 354.700906945 Route_S_Chicago_D_Minneapolis
 + 712.722748365 Route_S_Chicago_D_New_York
 + 693.127996072 Route_S_Chicago_D_Oklahoma_City
 + 619.280832598 Route_S_Chicago_D_Richmond
 + 1266.47804694 Route_S_Chicago_D_Salt_Lake_City
 + 1748.33375887 Route_S_Chicago_D_San_Diego
 + 1882.19349162 Route_S_Chicago_D_San_Francisco
 + 262.349208811 Route_S_Chicago_D_St._Louis
 + 587.357634483 Route_S_Dallas_D_Albuquerque
 + 1216.46774051 Route_S_Dallas_D_Baltimore
 + 1560.12964345 Route_S_Dallas_D_Boston
 + 931.261446672 Route_S_Dallas_D_Charlotte
 + 914.298823479 Route_S_Dallas_D_Columbus
 + 224.834155803 Route_S_Dallas_D_Houston
 + 764.490359794 Route_S_Dallas_D_Indianapolis
 + 454.35965674 Route_S_Dallas_D_Kansas_City
 + 1244.99155411 Route_S_Dallas_D_Los_Angeles
 + 727.161473079 Route_S_Dallas_D_Louisville
 + 420.129013043 Route_S_Dallas_D_Memphis
 + 1113.50640126 Route_S_Dallas_D_Miami
 + 865.534418833 Route_S_Dallas_D_Minneapolis
 + 1378.37947721 Route_S_Dallas_D_New_York
 + 190.448821152 Route_S_Dallas_D_Oklahoma_City
 + 1144.75251752 Route_S_Dallas_D_Richmond
 + 1001.19277213 Route_S_Dallas_D_Salt_Lake_City
 + 1187.84439551 Route_S_Dallas_D_San_Diego
 + 1492.57329399 Route_S_Dallas_D_San_Francisco
 + 548.086735131 Route_S_Dallas_D_St._Louis
 + 334.358271983 Route_S_Denver_D_Albuquerque
 + 1521.90200497 Route_S_Denver_D_Baltimore
 + 1790.68176169 Route_S_Denver_D_Boston
 + 1365.18741449 Route_S_Denver_D_Charlotte
 + 1170.82724143 Route_S_Denver_D_Columbus
 + 879.53400056 Route_S_Denver_D_Houston
 + 1003.02921511 Route_S_Denver_D_Indianapolis
 + 557.965455991 Route_S_Denver_D_Kansas_City
 + 831.411816593 Route_S_Denver_D_Los_Angeles
 + 1040.66317074 Route_S_Denver_D_Louisville
 + 879.704151559 Route_S_Denver_D_Memphis
 + 1735.90386586 Route_S_Denver_D_Miami
 + 699.530704797 Route_S_Denver_D_Minneapolis
 + 1647.02124182 Route_S_Denver_D_New_York
 + 504.468376031 Route_S_Denver_D_Oklahoma_City
 + 1503.02667975 Route_S_Denver_D_Richmond
 + 370.819492167 Route_S_Denver_D_Salt_Lake_City
 + 834.054033705 Route_S_Denver_D_San_Diego
 + 950.904453073 Route_S_Denver_D_San_Francisco
 + 797.180639495 Route_S_Denver_D_St._Louis
 + 1370.48724614 Route_S_Detroit_D_Albuquerque
 + 396.677628071 Route_S_Detroit_D_Baltimore
 + 612.774432306 Route_S_Detroit_D_Boston
 + 505.27994021 Route_S_Detroit_D_Charlotte
 + 163.805021567 Route_S_Detroit_D_Columbus
 + 1108.08411476 Route_S_Detroit_D_Houston
 + 240.124992439 Route_S_Detroit_D_Indianapolis
 + 644.277383366 Route_S_Detroit_D_Kansas_City
 + 2007.60978937 Route_S_Detroit_D_Los_Angeles
 + 316.032828212 Route_S_Detroit_D_Louisville
 + 623.385554141 Route_S_Detroit_D_Memphis
 + 1160.28508308 Route_S_Detroit_D_Miami
 + 542.806022902 Route_S_Detroit_D_Minneapolis
 + 481.060343866 Route_S_Detroit_D_New_York
 + 911.326470965 Route_S_Detroit_D_Oklahoma_City
 + 444.814794436 Route_S_Detroit_D_Richmond
 + 1503.92747915 Route_S_Detroit_D_Salt_Lake_City
 + 1994.12906546 Route_S_Detroit_D_San_Diego
 + 2126.46162944 Route_S_Detroit_D_San_Francisco
 + 454.810685164 Route_S_Detroit_D_St._Louis
 + 1122.04374487 Route_S_Nashville_D_Albuquerque
 + 596.571982892 Route_S_Nashville_D_Baltimore
 + 944.278601831 Route_S_Nashville_D_Boston
 + 339.548430914 Route_S_Nashville_D_Charlotte
 + 333.515412411 Route_S_Nashville_D_Columbus
 + 666.00058351 Route_S_Nashville_D_Houston
 + 251.488311166 Route_S_Nashville_D_Indianapolis
 + 472.552144655 Route_S_Nashville_D_Kansas_City
 + 1798.56563073 Route_S_Nashville_D_Los_Angeles
 + 155.006223293 Route_S_Nashville_D_Louisville
 + 196.359794421 Route_S_Nashville_D_Memphis
 + 818.311771064 Route_S_Nashville_D_Miami
 + 697.766163606 Route_S_Nashville_D_Minneapolis
 + 759.926001511 Route_S_Nashville_D_New_York
 + 603.97028922 Route_S_Nashville_D_Oklahoma_City
 + 525.756163076 Route_S_Nashville_D_Richmond
 + 1400.50233306 Route_S_Nashville_D_Salt_Lake_City
 + 1760.14709309 Route_S_Nashville_D_San_Diego
 + 1989.62293646 Route_S_Nashville_D_San_Francisco
 + 253.36318164 Route_S_Nashville_D_St._Louis
 + 1769.49376678 Route_S_Philadelphia_D_Albuquerque
 + 89.582391247 Route_S_Philadelphia_D_Baltimore
 + 270.746258784 Route_S_Philadelphia_D_Boston
 + 450.799614333 Route_S_Philadelphia_D_Charlotte
 + 415.098102848 Route_S_Philadelphia_D_Columbus
 + 1345.42337188 Route_S_Philadelphia_D_Houston
 + 583.723352775 Route_S_Philadelphia_D_Indianapolis
 + 1039.22142939 Route_S_Philadelphia_D_Kansas_City
 + 2441.61867806 Route_S_Philadelphia_D_Los_Angeles
 + 580.454507151 Route_S_Philadelphia_D_Louisville
 + 881.055007199 Route_S_Philadelphia_D_Memphis
 + 1024.98501488 Route_S_Philadelphia_D_Miami
 + 986.751134287 Route_S_Philadelphia_D_Minneapolis
 + 80.5436497652 Route_S_Philadelphia_D_New_York
 + 1264.27287181 Route_S_Philadelphia_D_Oklahoma_City
 + 206.757845815 Route_S_Philadelphia_D_Richmond
 + 1952.52307735 Route_S_Philadelphia_D_Salt_Lake_City
 + 2417.44842145 Route_S_Philadelphia_D_San_Diego
 + 2585.66998586 Route_S_Philadelphia_D_San_Francisco
 + 810.509592041 Route_S_Philadelphia_D_St._Louis
 + 329.747745627 Route_S_Phoenix_D_Albuquerque
 + 2030.73888001 Route_S_Phoenix_D_Baltimore
 + 2339.90623043 Route_S_Phoenix_D_Boston
 + 1800.48011651 Route_S_Phoenix_D_Charlotte
 + 1680.52886663 Route_S_Phoenix_D_Columbus
 + 1017.61056593 Route_S_Phoenix_D_Houston
 + 1507.89139455 Route_S_Phoenix_D_Indianapolis
 + 1051.27301109 Route_S_Phoenix_D_Kansas_City
 + 357.02424789 Route_S_Phoenix_D_Los_Angeles
 + 1517.79352026 Route_S_Phoenix_D_Louisville
 + 1267.7816989 Route_S_Phoenix_D_Memphis
 + 2002.53222359 Route_S_Phoenix_D_Miami
 + 1282.89994623 Route_S_Phoenix_D_Minneapolis
 + 2176.50150473 Route_S_Phoenix_D_New_York
 + 842.439125668 Route_S_Phoenix_D_Oklahoma_City
 + 1986.62995699 Route_S_Phoenix_D_Richmond
 + 505.712218341 Route_S_Phoenix_D_Salt_Lake_City
 + 298.90570696 Route_S_Phoenix_D_San_Diego
 + 653.720006176 Route_S_Phoenix_D_San_Francisco
 + 1277.10186937 Route_S_Phoenix_D_St._Louis
 + 1108.85798447 Route_S_Portland_D_Albuquerque
 + 2415.4004801 Route_S_Portland_D_Baltimore
 + 2614.25886338 Route_S_Portland_D_Boston
 + 2329.86427671 Route_S_Portland_D_Charlotte
 + 2066.55209475 Route_S_Portland_D_Columbus
 + 1846.47490863 Route_S_Portland_D_Houston
 + 1910.83108166 Route_S_Portland_D_Indianapolis
 + 1507.28182848 Route_S_Portland_D_Kansas_City
 + 826.541125554 Route_S_Portland_D_Los_Angeles
 + 1976.42834903 Route_S_Portland_D_Louisville
 + 1866.88983536 Route_S_Portland_D_Memphis
 + 2753.83418309 Route_S_Portland_D_Miami
 + 1438.70543672 Route_S_Portland_D_Minneapolis
 + 2508.51765546 Route_S_Portland_D_New_York
 + 1493.88413926 Route_S_Portland_D_Oklahoma_City
 + 2427.6129537 Route_S_Portland_D_Richmond
 + 634.883673593 Route_S_Portland_D_Salt_Lake_City
 + 933.0337267 Route_S_Portland_D_San_Diego
 + 534.70527125 Route_S_Portland_D_San_Francisco
 + 1740.22209903 Route_S_Portland_D_St._Louis
 + 1186.10177727 Route_S_Seattle_D_Albuquerque
 + 2384.48465414 Route_S_Seattle_D_Baltimore
 + 2563.06209725 Route_S_Seattle_D_Boston
 + 2323.40422604 Route_S_Seattle_D_Charlotte
 + 2044.38849198 Route_S_Seattle_D_Columbus
 + 1902.62774806 Route_S_Seattle_D_Houston
 + 1895.74229096 Route_S_Seattle_D_Indianapolis
 + 1515.42044145 Route_S_Seattle_D_Kansas_City
 + 962.407048869 Route_S_Seattle_D_Los_Angeles
 + 1967.81736377 Route_S_Seattle_D_Louisville
 + 1883.48235116 Route_S_Seattle_D_Memphis
 + 2778.89813695 Route_S_Seattle_D_Miami
 + 1405.79114804 Route_S_Seattle_D_Minneapolis
 + 2467.7850683 Route_S_Seattle_D_New_York
 + 1531.84210779 Route_S_Seattle_D_Oklahoma_City
 + 2405.02192361 Route_S_Seattle_D_Richmond
 + 700.582053467 Route_S_Seattle_D_Salt_Lake_City
 + 1066.7087563 Route_S_Seattle_D_San_Diego
 + 680.166480618 Route_S_Seattle_D_San_Francisco
 + 1739.90032081 Route_S_Seattle_D_St._Louis
Subject To
Received_by_D_Albuquerque: Route_S_Atlanta_D_Albuquerque
 + Route_S_Chicago_D_Albuquerque + Route_S_Dallas_D_Albuquerque
 + Route_S_Denver_D_Albuquerque + Route_S_Detroit_D_Albuquerque
 + Route_S_Nashville_D_Albuquerque + Route_S_Philadelphia_D_Albuquerque
 + Route_S_Phoenix_D_Albuquerque + Route_S_Portland_D_Albuquerque
 + Route_S_Seattle_D_Albuquerque >= 80
Received_by_D_Baltimore: Route_S_Atlanta_D_Baltimore
 + Route_S_Chicago_D_Baltimore + Route_S_Dallas_D_Baltimore
 + Route_S_Denver_D_Baltimore + Route_S_Detroit_D_Baltimore
 + Route_S_Nashville_D_Baltimore + Route_S_Philadelphia_D_Baltimore
 + Route_S_Phoenix_D_Baltimore + Route_S_Portland_D_Baltimore
 + Route_S_Seattle_D_Baltimore >= 135
Received_by_D_Boston: Route_S_Atlanta_D_Boston + Route_S_Chicago_D_Boston
 + Route_S_Dallas_D_Boston + Route_S_Denver_D_Boston
 + Route_S_Detroit_D_Boston + Route_S_Nashville_D_Boston
 + Route_S_Philadelphia_D_Boston + Route_S_Phoenix_D_Boston
 + Route_S_Portland_D_Boston + Route_S_Seattle_D_Boston >= 125
Received_by_D_Charlotte: Route_S_Atlanta_D_Charlotte
 + Route_S_Chicago_D_Charlotte + Route_S_Dallas_D_Charlotte
 + Route_S_Denver_D_Charlotte + Route_S_Detroit_D_Charlotte
 + Route_S_Nashville_D_Charlotte + Route_S_Philadelphia_D_Charlotte
 + Route_S_Phoenix_D_Charlotte + Route_S_Portland_D_Charlotte
 + Route_S_Seattle_D_Charlotte >= 120
Received_by_D_Columbus: Route_S_Atlanta_D_Columbus
 + Route_S_Chicago_D_Columbus + Route_S_Dallas_D_Columbus
 + Route_S_Denver_D_Columbus + Route_S_Detroit_D_Columbus
 + Route_S_Nashville_D_Columbus + Route_S_Philadelphia_D_Columbus
 + Route_S_Phoenix_D_Columbus + Route_S_Portland_D_Columbus
 + Route_S_Seattle_D_Columbus >= 105
Received_by_D_Houston: Route_S_Atlanta_D_Houston + Route_S_Chicago_D_Houston
 + Route_S_Dallas_D_Houston + Route_S_Denver_D_Houston
 + Route_S_Detroit_D_Houston + Route_S_Nashville_D_Houston
 + Route_S_Philadelphia_D_Houston + Route_S_Phoenix_D_Houston
 + Route_S_Portland_D_Houston + Route_S_Seattle_D_Houston >= 160
Received_by_D_Indianapolis: Route_S_Atlanta_D_Indianapolis
 + Route_S_Chicago_D_Indianapolis + Route_S_Dallas_D_Indianapolis
 + Route_S_Denver_D_Indianapolis + Route_S_Detroit_D_Indianapolis
 + Route_S_Nashville_D_Indianapolis + Route_S_Philadelphia_D_Indianapolis
 + Route_S_Phoenix_D_Indianapolis + Route_S_Portland_D_Indianapolis
 + Route_S_Seattle_D_Indianapolis >= 110
Received_by_D_Kansas_City: Route_S_Atlanta_D_Kansas_City
 + Route_S_Chicago_D_Kansas_City + Route_S_Dallas_D_Kansas_City
 + Route_S_Denver_D_Kansas_City + Route_S_Detroit_D_Kansas_City
 + Route_S_Nashville_D_Kansas_City + Route_S_Philadelphia_D_Kansas_City
 + Route_S_Phoenix_D_Kansas_City + Route_S_Portland_D_Kansas_City
 + Route_S_Seattle_D_Kansas_City >= 100
Received_by_D_Los_Angeles: Route_S_Atlanta_D_Los_Angeles
 + Route_S_Chicago_D_Los_Angeles + Route_S_Dallas_D_Los_Angeles
 + Route_S_Denver_D_Los_Angeles + Route_S_Detroit_D_Los_Angeles
 + Route_S_Nashville_D_Los_Angeles + Route_S_Philadelphia_D_Los_Angeles
 + Route_S_Phoenix_D_Los_Angeles + Route_S_Portland_D_Los_Angeles
 + Route_S_Seattle_D_Los_Angeles >= 175
Received_by_D_Louisville: Route_S_Atlanta_D_Louisville
 + Route_S_Chicago_D_Louisville + Route_S_Dallas_D_Louisville
 + Route_S_Denver_D_Louisville + Route_S_Detroit_D_Louisville
 + Route_S_Nashville_D_Louisville + Route_S_Philadelphia_D_Louisville
 + Route_S_Phoenix_D_Louisville + Route_S_Portland_D_Louisville
 + Route_S_Seattle_D_Louisville >= 90
Received_by_D_Memphis: Route_S_Atlanta_D_Memphis + Route_S_Chicago_D_Memphis
 + Route_S_Dallas_D_Memphis + Route_S_Denver_D_Memphis
 + Route_S_Detroit_D_Memphis + Route_S_Nashville_D_Memphis
 + Route_S_Philadelphia_D_Memphis + Route_S_Phoenix_D_Memphis
 + Route_S_Portland_D_Memphis + Route_S_Seattle_D_Memphis >= 95
Received_by_D_Miami: Route_S_Atlanta_D_Miami + Route_S_Chicago_D_Miami
 + Route_S_Dallas_D_Miami + Route_S_Denver_D_Miami + Route_S_Detroit_D_Miami
 + Route_S_Nashville_D_Miami + Route_S_Philadelphia_D_Miami
 + Route_S_Phoenix_D_Miami + Route_S_Portland_D_Miami
 + Route_S_Seattle_D_Miami >= 150
Received_by_D_Minneapolis: Route_S_Atlanta_D_Minneapolis
 + Route_S_Chicago_D_Minneapolis + Route_S_Dallas_D_Minneapolis
 + Route_S_Denver_D_Minneapolis + Route_S_Detroit_D_Minneapolis
 + Route_S_Nashville_D_Minneapolis + Route_S_Philadelphia_D_Minneapolis
 + Route_S_Phoenix_D_Minneapolis + Route_S_Portland_D_Minneapolis
 + Route_S_Seattle_D_Minneapolis >= 130
Received_by_D_New_York: Route_S_Atlanta_D_New_York
 + Route_S_Chicago_D_New_York + Route_S_Dallas_D_New_York
 + Route_S_Denver_D_New_York + Route_S_Detroit_D_New_York
 + Route_S_Nashville_D_New_York + Route_S_Philadelphia_D_New_York
 + Route_S_Phoenix_D_New_York + Route_S_Portland_D_New_York
 + Route_S_Seattle_D_New_York >= 200
Received_by_D_Oklahoma_City: Route_S_Atlanta_D_Oklahoma_City
 + Route_S_Chicago_D_Oklahoma_City + Route_S_Dallas_D_Oklahoma_City
 + Route_S_Denver_D_Oklahoma_City + Route_S_Detroit_D_Oklahoma_City
 + Route_S_Nashville_D_Oklahoma_City + Route_S_Philadelphia_D_Oklahoma_City
 + Route_S_Phoenix_D_Oklahoma_City + Route_S_Portland_D_Oklahoma_City
 + Route_S_Seattle_D_Oklahoma_City >= 95
Received_by_D_Richmond: Route_S_Atlanta_D_Richmond
 + Route_S_Chicago_D_Richmond + Route_S_Dallas_D_Richmond
 + Route_S_Denver_D_Richmond + Route_S_Detroit_D_Richmond
 + Route_S_Nashville_D_Richmond + Route_S_Philadelphia_D_Richmond
 + Route_S_Phoenix_D_Richmond + Route_S_Portland_D_Richmond
 + Route_S_Seattle_D_Richmond >= 85
Received_by_D_Salt_Lake_City: Route_S_Atlanta_D_Salt_Lake_City
 + Route_S_Chicago_D_Salt_Lake_City + Route_S_Dallas_D_Salt_Lake_City
 + Route_S_Denver_D_Salt_Lake_City + Route_S_Detroit_D_Salt_Lake_City
 + Route_S_Nashville_D_Salt_Lake_City + Route_S_Philadelphia_D_Salt_Lake_City
 + Route_S_Phoenix_D_Salt_Lake_City + Route_S_Portland_D_Salt_Lake_City
 + Route_S_Seattle_D_Salt_Lake_City >= 100
Received_by_D_San_Diego: Route_S_Atlanta_D_San_Diego
 + Route_S_Chicago_D_San_Diego + Route_S_Dallas_D_San_Diego
 + Route_S_Denver_D_San_Diego + Route_S_Detroit_D_San_Diego
 + Route_S_Nashville_D_San_Diego + Route_S_Philadelphia_D_San_Diego
 + Route_S_Phoenix_D_San_Diego + Route_S_Portland_D_San_Diego
 + Route_S_Seattle_D_San_Diego >= 115
Received_by_D_San_Francisco: Route_S_Atlanta_D_San_Francisco
 + Route_S_Chicago_D_San_Francisco + Route_S_Dallas_D_San_Francisco
 + Route_S_Denver_D_San_Francisco + Route_S_Detroit_D_San_Francisco
 + Route_S_Nashville_D_San_Francisco + Route_S_Philadelphia_D_San_Francisco
 + Route_S_Phoenix_D_San_Francisco + Route_S_Portland_D_San_Francisco
 + Route_S_Seattle_D_San_Francisco >= 145
Received_by_D_St._Louis: Route_S_Atlanta_D_St._Louis
 + Route_S_Chicago_D_St._Louis + Route_S_Dallas_D_St._Louis
 + Route_S_Denver_D_St._Louis + Route_S_Detroit_D_St._Louis
 + Route_S_Nashville_D_St._Louis + Route_S_Philadelphia_D_St._Louis
 + Route_S_Phoenix_D_St._Louis + Route_S_Portland_D_St._Louis
 + Route_S_Seattle_D_St._Louis >= 110
Supplied_from_S_Atlanta: Route_S_Atlanta_D_Albuquerque
 + Route_S_Atlanta_D_Baltimore + Route_S_Atlanta_D_Boston
 + Route_S_Atlanta_D_Charlotte + Route_S_Atlanta_D_Columbus
 + Route_S_Atlanta_D_Houston + Route_S_Atlanta_D_Indianapolis
 + Route_S_Atlanta_D_Kansas_City + Route_S_Atlanta_D_Los_Angeles
 + Route_S_Atlanta_D_Louisville + Route_S_Atlanta_D_Memphis
 + Route_S_Atlanta_D_Miami + Route_S_Atlanta_D_Minneapolis
 + Route_S_Atlanta_D_New_York + Route_S_Atlanta_D_Oklahoma_City
 + Route_S_Atlanta_D_Richmond + Route_S_Atlanta_D_Salt_Lake_City
 + Route_S_Atlanta_D_San_Diego + Route_S_Atlanta_D_San_Francisco
 + Route_S_Atlanta_D_St._Louis <= 350
Supplied_from_S_Chicago: Route_S_Chicago_D_Albuquerque
 + Route_S_Chicago_D_Baltimore + Route_S_Chicago_D_Boston
 + Route_S_Chicago_D_Charlotte + Route_S_Chicago_D_Columbus
 + Route_S_Chicago_D_Houston + Route_S_Chicago_D_Indianapolis
 + Route_S_Chicago_D_Kansas_City + Route_S_Chicago_D_Los_Angeles
 + Route_S_Chicago_D_Louisville + Route_S_Chicago_D_Memphis
 + Route_S_Chicago_D_Miami + Route_S_Chicago_D_Minneapolis
 + Route_S_Chicago_D_New_York + Route_S_Chicago_D_Oklahoma_City
 + Route_S_Chicago_D_Richmond + Route_S_Chicago_D_Salt_Lake_City
 + Route_S_Chicago_D_San_Diego + Route_S_Chicago_D_San_Francisco
 + Route_S_Chicago_D_St._Louis <= 400
Supplied_from_S_Dallas: Route_S_Dallas_D_Albuquerque
 + Route_S_Dallas_D_Baltimore + Route_S_Dallas_D_Boston
 + Route_S_Dallas_D_Charlotte + Route_S_Dallas_D_Columbus
 + Route_S_Dallas_D_Houston + Route_S_Dallas_D_Indianapolis
 + Route_S_Dallas_D_Kansas_City + Route_S_Dallas_D_Los_Angeles
 + Route_S_Dallas_D_Louisville + Route_S_Dallas_D_Memphis
 + Route_S_Dallas_D_Miami + Route_S_Dallas_D_Minneapolis
 + Route_S_Dallas_D_New_York + Route_S_Dallas_D_Oklahoma_City
 + Route_S_Dallas_D_Richmond + Route_S_Dallas_D_Salt_Lake_City
 + Route_S_Dallas_D_San_Diego + Route_S_Dallas_D_San_Francisco
 + Route_S_Dallas_D_St._Louis <= 300
Supplied_from_S_Denver: Route_S_Denver_D_Albuquerque
 + Route_S_Denver_D_Baltimore + Route_S_Denver_D_Boston
 + Route_S_Denver_D_Charlotte + Route_S_Denver_D_Columbus
 + Route_S_Denver_D_Houston + Route_S_Denver_D_Indianapolis
 + Route_S_Denver_D_Kansas_City + Route_S_Denver_D_Los_Angeles
 + Route_S_Denver_D_Louisville + Route_S_Denver_D_Memphis
 + Route_S_Denver_D_Miami + Route_S_Denver_D_Minneapolis
 + Route_S_Denver_D_New_York + Route_S_Denver_D_Oklahoma_City
 + Route_S_Denver_D_Richmond + Route_S_Denver_D_Salt_Lake_City
 + Route_S_Denver_D_San_Diego + Route_S_Denver_D_San_Francisco
 + Route_S_Denver_D_St._Louis <= 275
Supplied_from_S_Detroit: Route_S_Detroit_D_Albuquerque
 + Route_S_Detroit_D_Baltimore + Route_S_Detroit_D_Boston
 + Route_S_Detroit_D_Charlotte + Route_S_Detroit_D_Columbus
 + Route_S_Detroit_D_Houston + Route_S_Detroit_D_Indianapolis
 + Route_S_Detroit_D_Kansas_City + Route_S_Detroit_D_Los_Angeles
 + Route_S_Detroit_D_Louisville + Route_S_Detroit_D_Memphis
 + Route_S_Detroit_D_Miami + Route_S_Detroit_D_Minneapolis
 + Route_S_Detroit_D_New_York + Route_S_Detroit_D_Oklahoma_City
 + Route_S_Detroit_D_Richmond + Route_S_Detroit_D_Salt_Lake_City
 + Route_S_Detroit_D_San_Diego + Route_S_Detroit_D_San_Francisco
 + Route_S_Detroit_D_St._Louis <= 260
Supplied_from_S_Nashville: Route_S_Nashville_D_Albuquerque
 + Route_S_Nashville_D_Baltimore + Route_S_Nashville_D_Boston
 + Route_S_Nashville_D_Charlotte + Route_S_Nashville_D_Columbus
 + Route_S_Nashville_D_Houston + Route_S_Nashville_D_Indianapolis
 + Route_S_Nashville_D_Kansas_City + Route_S_Nashville_D_Los_Angeles
 + Route_S_Nashville_D_Louisville + Route_S_Nashville_D_Memphis
 + Route_S_Nashville_D_Miami + Route_S_Nashville_D_Minneapolis
 + Route_S_Nashville_D_New_York + Route_S_Nashville_D_Oklahoma_City
 + Route_S_Nashville_D_Richmond + Route_S_Nashville_D_Salt_Lake_City
 + Route_S_Nashville_D_San_Diego + Route_S_Nashville_D_San_Francisco
 + Route_S_Nashville_D_St._Louis <= 240
Supplied_from_S_Philadelphia: Route_S_Philadelphia_D_Albuquerque
 + Route_S_Philadelphia_D_Baltimore + Route_S_Philadelphia_D_Boston
 + Route_S_Philadelphia_D_Charlotte + Route_S_Philadelphia_D_Columbus
 + Route_S_Philadelphia_D_Houston + Route_S_Philadelphia_D_Indianapolis
 + Route_S_Philadelphia_D_Kansas_City + Route_S_Philadelphia_D_Los_Angeles
 + Route_S_Philadelphia_D_Louisville + Route_S_Philadelphia_D_Memphis
 + Route_S_Philadelphia_D_Miami + Route_S_Philadelphia_D_Minneapolis
 + Route_S_Philadelphia_D_New_York + Route_S_Philadelphia_D_Oklahoma_City
 + Route_S_Philadelphia_D_Richmond + Route_S_Philadelphia_D_Salt_Lake_City
 + Route_S_Philadelphia_D_San_Diego + Route_S_Philadelphia_D_San_Francisco
 + Route_S_Philadelphia_D_St._Louis <= 325
Supplied_from_S_Phoenix: Route_S_Phoenix_D_Albuquerque
 + Route_S_Phoenix_D_Baltimore + Route_S_Phoenix_D_Boston
 + Route_S_Phoenix_D_Charlotte + Route_S_Phoenix_D_Columbus
 + Route_S_Phoenix_D_Houston + Route_S_Phoenix_D_Indianapolis
 + Route_S_Phoenix_D_Kansas_City + Route_S_Phoenix_D_Los_Angeles
 + Route_S_Phoenix_D_Louisville + Route_S_Phoenix_D_Memphis
 + Route_S_Phoenix_D_Miami + Route_S_Phoenix_D_Minneapolis
 + Route_S_Phoenix_D_New_York + Route_S_Phoenix_D_Oklahoma_City
 + Route_S_Phoenix_D_Richmond + Route_S_Phoenix_D_Salt_Lake_City
 + Route_S_Phoenix_D_San_Diego + Route_S_Phoenix_D_San_Francisco
 + Route_S_Phoenix_D_St._Louis <= 290
Supplied_from_S_Portland: Route_S_Portland_D_Albuquerque
 + Route_S_Portland_D_Baltimore + Route_S_Portland_D_Boston
 + Route_S_Portland_D_Charlotte + Route_S_Portland_D_Columbus
 + Route_S_Portland_D_Houston + Route_S_Portland_D_Indianapolis
 + Route_S_Portland_D_Kansas_City + Route_S_Portland_D_Los_Angeles
 + Route_S_Portland_D_Louisville + Route_S_Portland_D_Memphis
 + Route_S_Portland_D_Miami + Route_S_Portland_D_Minneapolis
 + Route_S_Portland_D_New_York + Route_S_Portland_D_Oklahoma_City
 + Route_S_Portland_D_Richmond + Route_S_Portland_D_Salt_Lake_City
 + Route_S_Portland_D_San_Diego + Route_S_Portland_D_San_Francisco
 + Route_S_Portland_D_St._Louis <= 310
Supplied_from_S_Seattle: Route_S_Seattle_D_Albuquerque
 + Route_S_Seattle_D_Baltimore + Route_S_Seattle_D_Boston
 + Route_S_Seattle_D_Charlotte + Route_S_Seattle_D_Columbus
 + Route_S_Seattle_D_Houston + Route_S_Seattle_D_Indianapolis
 + Route_S_Seattle_D_Kansas_City + Route_S_Seattle_D_Los_Angeles
 + Route_S_Seattle_D_Louisville + Route_S_Seattle_D_Memphis
 + Route_S_Seattle_D_Miami + Route_S_Seattle_D_Minneapolis
 + Route_S_Seattle_D_New_York + Route_S_Seattle_D_Oklahoma_City
 + Route_S_Seattle_D_Richmond + Route_S_Seattle_D_Salt_Lake_City
 + Route_S_Seattle_D_San_Diego + Route_S_Seattle_D_San_Francisco
 + Route_S_Seattle_D_St._Louis <= 500
Bounds
 0 <= Route_S_Atlanta_D_Albuquerque
 0 <= Route_S_Atlanta_D_Baltimore
 0 <= Route_S_Atlanta_D_Boston
 0 <= Route_S_Atlanta_D_Charlotte
 0 <= Route_S_Atlanta_D_Columbus
 0 <= Route_S_Atlanta_D_Houston
 0 <= Route_S_Atlanta_D_Indianapolis
 0 <= Route_S_Atlanta_D_Kansas_City
 0 <= Route_S_Atlanta_D_Los_Angeles
 0 <= Route_S_Atlanta_D_Louisville
 0 <= Route_S_Atlanta_D_Memphis
 0 <= Route_S_Atlanta_D_Miami
 0 <= Route_S_Atlanta_D_Minneapolis
 0 <= Route_S_Atlanta_D_New_York
 0 <= Route_S_Atlanta_D_Oklahoma_City
 0 <= Route_S_Atlanta_D_Richmond
 0 <= Route_S_Atlanta_D_Salt_Lake_City
 0 <= Route_S_Atlanta_D_San_Diego
 0 <= Route_S_Atlanta_D_San_Francisco
 0 <= Route_S_Atlanta_D_St._Louis
 0 <= Route_S_Chicago_D_Albuquerque
 0 <= Route_S_Chicago_D_Baltimore
 0 <= Route_S_Chicago_D_Boston
 0 <= Route_S_Chicago_D_Charlotte
 0 <= Route_S_Chicago_D_Columbus
 0 <= Route_S_Chicago_D_Houston
 0 <= Route_S_Chicago_D_Indianapolis
 0 <= Route_S_Chicago_D_Kansas_City
 0 <= Route_S_Chicago_D_Los_Angeles
 0 <= Route_S_Chicago_D_Louisville
 0 <= Route_S_Chicago_D_Memphis
 0 <= Route_S_Chicago_D_Miami
 0 <= Route_S_Chicago_D_Minneapolis
 0 <= Route_S_Chicago_D_New_York
 0 <= Route_S_Chicago_D_Oklahoma_City
 0 <= Route_S_Chicago_D_Richmond
 0 <= Route_S_Chicago_D_Salt_Lake_City
 0 <= Route_S_Chicago_D_San_Diego
 0 <= Route_S_Chicago_D_San_Francisco
 0 <= Route_S_Chicago_D_St._Louis
 0 <= Route_S_Dallas_D_Albuquerque
 0 <= Route_S_Dallas_D_Baltimore
 0 <= Route_S_Dallas_D_Boston
 0 <= Route_S_Dallas_D_Charlotte
 0 <= Route_S_Dallas_D_Columbus
 0 <= Route_S_Dallas_D_Houston
 0 <= Route_S_Dallas_D_Indianapolis
 0 <= Route_S_Dallas_D_Kansas_City
 0 <= Route_S_Dallas_D_Los_Angeles
 0 <= Route_S_Dallas_D_Louisville
 0 <= Route_S_Dallas_D_Memphis
 0 <= Route_S_Dallas_D_Miami
 0 <= Route_S_Dallas_D_Minneapolis
 0 <= Route_S_Dallas_D_New_York
 0 <= Route_S_Dallas_D_Oklahoma_City
 0 <= Route_S_Dallas_D_Richmond
 0 <= Route_S_Dallas_D_Salt_Lake_City
 0 <= Route_S_Dallas_D_San_Diego
 0 <= Route_S_Dallas_D_San_Francisco
 0 <= Route_S_Dallas_D_St._Louis
 0 <= Route_S_Denver_D_Albuquerque
 0 <= Route_S_Denver_D_Baltimore
 0 <= Route_S_Denver_D_Boston
 0 <= Route_S_Denver_D_Charlotte
 0 <= Route_S_Denver_D_Columbus
 0 <= Route_S_Denver_D_Houston
 0 <= Route_S_Denver_D_Indianapolis
 0 <= Route_S_Denver_D_Kansas_City
 0 <= Route_S_Denver_D_Los_Angeles
 0 <= Route_S_Denver_D_Louisville
 0 <= Route_S_Denver_D_Memphis
 0 <= Route_S_Denver_D_Miami
 0 <= Route_S_Denver_D_Minneapolis
 0 <= Route_S_Denver_D_New_York
 0 <= Route_S_Denver_D_Oklahoma_City
 0 <= Route_S_Denver_D_Richmond
 0 <= Route_S_Denver_D_Salt_Lake_City
 0 <= Route_S_Denver_D_San_Diego
 0 <= Route_S_Denver_D_San_Francisco
 0 <= Route_S_Denver_D_St._Louis
 0 <= Route_S_Detroit_D_Albuquerque
 0 <= Route_S_Detroit_D_Baltimore
 0 <= Route_S_Detroit_D_Boston
 0 <= Route_S_Detroit_D_Charlotte
 0 <= Route_S_Detroit_D_Columbus
 0 <= Route_S_Detroit_D_Houston
 0 <= Route_S_Detroit_D_Indianapolis
 0 <= Route_S_Detroit_D_Kansas_City
 0 <= Route_S_Detroit_D_Los_Angeles
 0 <= Route_S_Detroit_D_Louisville
 0 <= Route_S_Detroit_D_Memphis
 0 <= Route_S_Detroit_D_Miami
 0 <= Route_S_Detroit_D_Minneapolis
 0 <= Route_S_Detroit_D_New_York
 0 <= Route_S_Detroit_D_Oklahoma_City
 0 <= Route_S_Detroit_D_Richmond
 0 <= Route_S_Detroit_D_Salt_Lake_City
 0 <= Route_S_Detroit_D_San_Diego
 0 <= Route_S_Detroit_D_San_Francisco
 0 <= Route_S_Detroit_D_St._Louis
 0 <= Route_S_Nashville_D_Albuquerque
 0 <= Route_S_Nashville_D_Baltimore
 0 <= Route_S_Nashville_D_Boston
 0 <= Route_S_Nashville_D_Charlotte
 0 <= Route_S_Nashville_D_Columbus
 0 <= Route_S_Nashville_D_Houston
 0 <= Route_S_Nashville_D_Indianapolis
 0 <= Route_S_Nashville_D_Kansas_City
 0 <= Route_S_Nashville_D_Los_Angeles
 0 <= Route_S_Nashville_D_Louisville
 0 <= Route_S_Nashville_D_Memphis
 0 <= Route_S_Nashville_D_Miami
 0 <= Route_S_Nashville_D_Minneapolis
 0 <= Route_S_Nashville_D_New_York
 0 <= Route_S_Nashville_D_Oklahoma_City
 0 <= Route_S_Nashville_D_Richmond
 0 <= Route_S_Nashville_D_Salt_Lake_City
 0 <= Route_S_Nashville_D_San_Diego
 0 <= Route_S_Nashville_D_San_Francisco
 0 <= Route_S_Nashville_D_St._Louis
 0 <= Route_S_Philadelphia_D_Albuquerque
 0 <= Route_S_Philadelphia_D_Baltimore
 0 <= Route_S_Philadelphia_D_Boston
 0 <= Route_S_Philadelphia_D_Charlotte
 0 <= Route_S_Philadelphia_D_Columbus
 0 <= Route_S_Philadelphia_D_Houston
 0 <= Route_S_Philadelphia_D_Indianapolis
 0 <= Route_S_Philadelphia_D_Kansas_City
 0 <= Route_S_Philadelphia_D_Los_Angeles
 0 <= Route_S_Philadelphia_D_Louisville
 0 <= Route_S_Philadelphia_D_Memphis
 0 <= Route_S_Philadelphia_D_Miami
 0 <= Route_S_Philadelphia_D_Minneapolis
 0 <= Route_S_Philadelphia_D_New_York
 0 <= Route_S_Philadelphia_D_Oklahoma_City
 0 <= Route_S_Philadelphia_D_Richmond
 0 <= Route_S_Philadelphia_D_Salt_Lake_City
 0 <= Route_S_Philadelphia_D_San_Diego
 0 <= Route_S_Philadelphia_D_San_Francisco
 0 <= Route_S_Philadelphia_D_St._Louis
 0 <= Route_S_Phoenix_D_Albuquerque
 0 <= Route_S_Phoenix_D_Baltimore
 0 <= Route_S_Phoenix_D_Boston
 0 <= Route_S_Phoenix_D_Charlotte
 0 <= Route_S_Phoenix_D_Columbus
 0 <= Route_S_Phoenix_D_Houston
 0 <= Route_S_Phoenix_D_Indianapolis
 0 <= Route_S_Phoenix_D_Kansas_City
 0 <= Route_S_Phoenix_D_Los_Angeles
 0 <= Route_S_Phoenix_D_Louisville
 0 <= Route_S_Phoenix_D_Memphis
 0 <= Route_S_Phoenix_D_Miami
 0 <= Route_S_Phoenix_D_Minneapolis
 0 <= Route_S_Phoenix_D_New_York
 0 <= Route_S_Phoenix_D_Oklahoma_City
 0 <= Route_S_Phoenix_D_Richmond
 0 <= Route_S_Phoenix_D_Salt_Lake_City
 0 <= Route_S_Phoenix_D_San_Diego
 0 <= Route_S_Phoenix_D_San_Francisco
 0 <= Route_S_Phoenix_D_St._Louis
 0 <= Route_S_Portland_D_Albuquerque
 0 <= Route_S_Portland_D_Baltimore
 0 <= Route_S_Portland_D_Boston
 0 <= Route_S_Portland_D_Charlotte
 0 <= Route_S_Portland_D_Columbus
 0 <= Route_S_Portland_D_Houston
 0 <= Route_S_Portland_D_Indianapolis
 0 <= Route_S_Portland_D_Kansas_City
 0 <= Route_S_Portland_D_Los_Angeles
 0 <= Route_S_Portland_D_Louisville
 0 <= Route_S_Portland_D_Memphis
 0 <= Route_S_Portland_D_Miami
 0 <= Route_S_Portland_D_Minneapolis
 0 <= Route_S_Portland_D_New_York
 0 <= Route_S_Portland_D_Oklahoma_City
 0 <= Route_S_Portland_D_Richmond
 0 <= Route_S_Portland_D_Salt_Lake_City
 0 <= Route_S_Portland_D_San_Diego
 0 <= Route_S_Portland_D_San_Francisco
 0 <= Route_S_Portland_D_St._Louis
 0 <= Route_S_Seattle_D_Albuquerque
 0 <= Route_S_Seattle_D_Baltimore
 0 <= Route_S_Seattle_D_Boston
 0 <= Route_S_Seattle_D_Charlotte
 0 <= Route_S_Seattle_D_Columbus
 0 <= Route_S_Seattle_D_Houston
 0 <= Route_S_Seattle_D_Indianapolis
 0 <= Route_S_Seattle_D_Kansas_City
 0 <= Route_S_Seattle_D_Los_Angeles
 0 <= Route_S_Seattle_D_Louisville
 0 <= Route_S_Seattle_D_Memphis
 0 <= Route_S_Seattle_D_Miami
 0 <= Route_S_Seattle_D_Minneapolis
 0 <= Route_S_Seattle_D_New_York
 0 <= Route_S_Seattle_D_Oklahoma_City
 0 <= Route_S_Seattle_D_Richmond
 0 <= Route_S_Seattle_D_Salt_Lake_City
 0 <= Route_S_Seattle_D_San_Diego
 0 <= Route_S_Seattle_D_San_Francisco
 0 <= Route_S_Seattle_D_St._Louis
Generals
Route_S_Atlanta_D_Albuquerque
Route_S_Atlanta_D_Baltimore
Route_S_Atlanta_D_Boston
Route_S_Atlanta_D_Charlotte
Route_S_Atlanta_D_Columbus
Route_S_Atlanta_D_Houston
Route_S_Atlanta_D_Indianapolis
Route_S_Atlanta_D_Kansas_City
Route_S_Atlanta_D_Los_Angeles
Route_S_Atlanta_D_Louisville
Route_S_Atlanta_D_Memphis
Route_S_Atlanta_D_Miami
Route_S_Atlanta_D_Minneapolis
Route_S_Atlanta_D_New_York
Route_S_Atlanta_D_Oklahoma_City
Route_S_Atlanta_D_Richmond
Route_S_Atlanta_D_Salt_Lake_City
Route_S_Atlanta_D_San_Diego
Route_S_Atlanta_D_San_Francisco
Route_S_Atlanta_D_St._Louis
Route_S_Chicago_D_Albuquerque
Route_S_Chicago_D_Baltimore
Route_S_Chicago_D_Boston
Route_S_Chicago_D_Charlotte
Route_S_Chicago_D_Columbus
Route_S_Chicago_D_Houston
Route_S_Chicago_D_Indianapolis
Route_S_Chicago_D_Kansas_City
Route_S_Chicago_D_Los_Angeles
Route_S_Chicago_D_Louisville
Route_S_Chicago_D_Memphis
Route_S_Chicago_D_Miami
Route_S_Chicago_D_Minneapolis
Route_S_Chicago_D_New_York
Route_S_Chicago_D_Oklahoma_City
Route_S_Chicago_D_Richmond
Route_S_Chicago_D_Salt_Lake_City
Route_S_Chicago_D_San_Diego
Route_S_Chicago_D_San_Francisco
Route_S_Chicago_D_St._Louis
Route_S_Dallas_D_Albuquerque
Route_S_Dallas_D_Baltimore
Route_S_Dallas_D_Boston
Route_S_Dallas_D_Charlotte
Route_S_Dallas_D_Columbus
Route_S_Dallas_D_Houston
Route_S_Dallas_D_Indianapolis
Route_S_Dallas_D_Kansas_City
Route_S_Dallas_D_Los_Angeles
Route_S_Dallas_D_Louisville
Route_S_Dallas_D_Memphis
Route_S_Dallas_D_Miami
Route_S_Dallas_D_Minneapolis
Route_S_Dallas_D_New_York
Route_S_Dallas_D_Oklahoma_City
Route_S_Dallas_D_Richmond
Route_S_Dallas_D_Salt_Lake_City
Route_S_Dallas_D_San_Diego
Route_S_Dallas_D_San_Francisco
Route_S_Dallas_D_St._Louis
Route_S_Denver_D_Albuquerque
Route_S_Denver_D_Baltimore
Route_S_Denver_D_Boston
Route_S_Denver_D_Charlotte
Route_S_Denver_D_Columbus
Route_S_Denver_D_Houston
Route_S_Denver_D_Indianapolis
Route_S_Denver_D_Kansas_City
Route_S_Denver_D_Los_Angeles
Route_S_Denver_D_Louisville
Route_S_Denver_D_Memphis
Route_S_Denver_D_Miami
Route_S_Denver_D_Minneapolis
Route_S_Denver_D_New_York
Route_S_Denver_D_Oklahoma_City
Route_S_Denver_D_Richmond
Route_S_Denver_D_Salt_Lake_City
Route_S_Denver_D_San_Diego
Route_S_Denver_D_San_Francisco
Route_S_Denver_D_St._Louis
Route_S_Detroit_D_Albuquerque
Route_S_Detroit_D_Baltimore
Route_S_Detroit_D_Boston
Route_S_Detroit_D_Charlotte
Route_S_Detroit_D_Columbus
Route_S_Detroit_D_Houston
Route_S_Detroit_D_Indianapolis
Route_S_Detroit_D_Kansas_City
Route_S_Detroit_D_Los_Angeles
Route_S_Detroit_D_Louisville
Route_S_Detroit_D_Memphis
Route_S_Detroit_D_Miami
Route_S_Detroit_D_Minneapolis
Route_S_Detroit_D_New_York
Route_S_Detroit_D_Oklahoma_City
Route_S_Detroit_D_Richmond
Route_S_Detroit_D_Salt_Lake_City
Route_S_Detroit_D_San_Diego
Route_S_Detroit_D_San_Francisco
Route_S_Detroit_D_St._Louis
Route_S_Nashville_D_Albuquerque
Route_S_Nashville_D_Baltimore
Route_S_Nashville_D_Boston
Route_S_Nashville_D_Charlotte
Route_S_Nashville_D_Columbus
Route_S_Nashville_D_Houston
Route_S_Nashville_D_Indianapolis
Route_S_Nashville_D_Kansas_City
Route_S_Nashville_D_Los_Angeles
Route_S_Nashville_D_Louisville
Route_S_Nashville_D_Memphis
Route_S_Nashville_D_Miami
Route_S_Nashville_D_Minneapolis
Route_S_Nashville_D_New_York
Route_S_Nashville_D_Oklahoma_City
Route_S_Nashville_D_Richmond
Route_S_Nashville_D_Salt_Lake_City
Route_S_Nashville_D_San_Diego
Route_S_Nashville_D_San_Francisco
Route_S_Nashville_D_St._Louis
Route_S_Philadelphia_D_Albuquerque
Route_S_Philadelphia_D_Baltimore
Route_S_Philadelphia_D_Boston
Route_S_Philadelphia_D_Charlotte
Route_S_Philadelphia_D_Columbus
Route_S_Philadelphia_D_Houston
Route_S_Philadelphia_D_Indianapolis
Route_S_Philadelphia_D_Kansas_City
Route_S_Philadelphia_D_Los_Angeles
Route_S_Philadelphia_D_Louisville
Route_S_Philadelphia_D_Memphis
Route_S_Philadelphia_D_Miami
Route_S_Philadelphia_D_Minneapolis
Route_S_Philadelphia_D_New_York
Route_S_Philadelphia_D_Oklahoma_City
Route_S_Philadelphia_D_Richmond
Route_S_Philadelphia_D_Salt_Lake_City
Route_S_Philadelphia_D_San_Diego
Route_S_Philadelphia_D_San_Francisco
Route_S_Philadelphia_D_St._Louis
Route_S_Phoenix_D_Albuquerque
Route_S_Phoenix_D_Baltimore
Route_S_Phoenix_D_Boston
Route_S_Phoenix_D_Charlotte
Route_S_Phoenix_D_Columbus
Route_S_Phoenix_D_Houston
Route_S_Phoenix_D_Indianapolis
Route_S_Phoenix_D_Kansas_City
Route_S_Phoenix_D_Los_Angeles
Route_S_Phoenix_D_Louisville
Route_S_Phoenix_D_Memphis
Route_S_Phoenix_D_Miami
Route_S_Phoenix_D_Minneapolis
Route_S_Phoenix_D_New_York
Route_S_Phoenix_D_Oklahoma_City
Route_S_Phoenix_D_Richmond
Route_S_Phoenix_D_Salt_Lake_City
Route_S_Phoenix_D_San_Diego
Route_S_Phoenix_D_San_Francisco
Route_S_Phoenix_D_St._Louis
Route_S_Portland_D_Albuquerque
Route_S_Portland_D_Baltimore
Route_S_Portland_D_Boston
Route_S_Portland_D_Charlotte
Route_S_Portland_D_Columbus
Route_S_Portland_D_Houston
Route_S_Portland_D_Indianapolis
Route_S_Portland_D_Kansas_City
Route_S_Portland_D_Los_Angeles
Route_S_Portland_D_Louisville
Route_S_Portland_D_Memphis
Route_S_Portland_D_Miami
Route_S_Portland_D_Minneapolis
Route_S_Portland_D_New_York
Route_S_Portland_D_Oklahoma_City
Route_S_Portland_D_Richmond
Route_S_Portland_D_Salt_Lake_City
Route_S_Portland_D_San_Diego
Route_S_Portland_D_San_Francisco
Route_S_Portland_D_St._Louis
Route_S_Seattle_D_Albuquerque
Route_S_Seattle_D_Baltimore
Route_S_Seattle_D_Boston
Route_S_Seattle_D_Charlotte
Route_S_Seattle_D_Columbus
Route_S_Seattle_D_Houston
Route_S_Seattle_D_Indianapolis
Route_S_Seattle_D_Kansas_City
Route_S_Seattle_D_Los_Angeles
Route_S_Seattle_D_Louisville
Route_S_Seattle_D_Memphis
Route_S_Seattle_D_Miami
Route_S_Seattle_D_Minneapolis
Route_S_Seattle_D_New_York
Route_S_Seattle_D_Oklahoma_City
Route_S_Seattle_D_Richmond
Route_S_Seattle_D_Salt_Lake_City
Route_S_Seattle_D_San_Diego
Route_S_Seattle_D_San_Francisco
Route_S_Seattle_D_St._Louis
End
